certificates/rado_a5_c67_N14.drat
-13 -14 0
d -10 -13 -14 0
-14 0
11 0
-13 0
10 0
12 0
-5 0
-3 0
-4 0
2 0
0
